S = 7;
start = [|0,0,0,0,0,0,0,0,0,26,0,0,0,0,0,24,27,0,0,0,25,0,0,0,0,0,0,0,0,0,0,0,0,0,0,0,7,0,0,0,0,0,0,43,42,0,0,0,0|
0,0,0,0,0,0,0,0,0,0,0,0,0,43,0,8,0,0,1,22,0,26,0,0,0,0,37,0,0,0,0,0,0,0,0,0,0,9,0,36,20,0,0,0,0,5,0,0,0|
0,0,0,44,0,0,0,23,0,0,0,0,0,0,0,0,0,0,0,0,0,0,21,0,0,0,0,0,0,48,0,0,0,0,0,0,0,30,6,0,0,0,0,0,0,0,0,0,0|
40,0,0,0,0,0,0,0,0,11,0,0,0,0,0,0,0,0,41,0,0,0,0,0,0,0,18,20,0,0,0,0,0,0,0,0,0,37,0,0,25,0,0,0,0,26,0,0,0|
0,0,0,0,1,0,37,0,0,0,0,0,0,4,32,0,0,0,0,0,0,19,0,0,0,0,0,0,0,46,10,0,0,0,0,0,0,0,0,0,0,0,31,0,0,0,0,0,0|
0,0,32,0,0,0,0,0,0,0,0,0,28,0,0,0,0,0,0,0,0,10,0,0,5,0,0,0,0,33,37,23,39,0,0,0,8,18,38,0,19,0,0,14,48,0,0,0,0|
45,0,0,24,0,8,0,0,0,0,0,0,0,0,47,0,0,0,48,0,0,0,23,0,0,0,0,0,0,0,0,0,38,20,0,0,0,12,0,0,0,0,0,0,0,0,0,0,11|
0,0,0,45,42,0,0,0,13,0,5,0,0,0,0,0,0,0,0,27,0,0,0,23,0,0,0,6,38,0,24,0,0,0,0,0,0,4,0,0,12,0,0,0,0,47,0,0,0|
32,0,0,0,0,0,0,7,9,0,0,0,0,0,0,0,0,0,0,0,0,0,0,0,0,0,20,38,0,0,0,0,0,0,10,17,34,0,0,0,0,0,0,0,0,0,0,0,0|
0,0,0,8,0,2,0,0,0,49,0,0,0,0,0,48,0,0,0,47,0,0,13,0,40,0,0,0,22,0,0,0,32,0,0,0,0,0,0,0,0,0,0,0,3,10,0,0,0|
0,35,0,0,29,0,0,0,0,17,0,0,0,0,0,0,0,0,0,0,45,0,0,0,0,0,0,0,0,0,11,20,0,0,0,0,0,0,24,0,0,0,0,0,0,0,0,0,0|
0,0,0,0,0,38,0,0,0,0,0,0,41,0,0,0,0,0,0,0,0,0,0,0,0,0,0,0,3,0,0,35,0,16,5,0,0,0,31,13,0,47,0,0,34,0,32,0,0|
0,0,37,0,19,27,0,0,0,0,0,0,0,25,0,0,8,0,0,0,7,0,0,0,0,5,0,0,48,0,0,0,0,0,0,23,0,0,0,21,0,0,0,0,0,0,0,0,0|
0,0,0,0,21,16,0,42,0,0,0,0,0,45,0,34,0,0,0,0,0,0,27,0,0,0,0,0,0,0,0,37,30,23,0,20,22,0,0,0,8,0,0,0,0,15,0,13,0|
4,0,0,0,7,0,0,0,0,0,0,0,36,0,0,0,16,0,0,0,0,0,0,0,49,0,26,0,0,23,14,0,40,0,0,0,0,25,0,0,31,0,0,0,0,0,0,0,0|
0,0,0,0,0,0,0,0,0,35,9,0,15,0,0,0,34,0,42,0,0,47,0,20,0,0,0,14,17,0,0,0,0,0,0,0,0,0,0,0,0,0,0,0,0,25,0,2,0|
0,0,0,0,0,0,0,0,0,0,0,0,0,0,0,0,2,0,11,0,0,3,10,0,0,0,0,0,0,0,0,0,0,22,0,0,0,0,4,0,0,0,26,0,31,0,0,6,0|
0,0,0,0,0,0,0,0,0,39,0,0,0,0,0,0,0,0,0,0,0,15,0,0,0,11,0,25,37,0,0,26,0,0,0,0,0,0,14,0,0,38,0,0,0,0,0,1,0|
27,0,0,0,0,25,0,0,0,0,0,0,0,0,3,0,0,0,6,37,0,29,0,0,0,0,0,0,0,0,0,0,0,5,38,26,24,0,0,0,17,0,22,41,0,36,0,0,0|
0,0,0,0,5,37,0,0,0,0,0,0,0,0,0,0,0,0,0,8,0,41,0,0,33,0,27,0,39,0,0,0,0,6,0,0,0,0,49,0,0,0,0,0,0,0,0,19,0|
0,0,0,0,0,0,0,0,0,0,0,0,0,0,0,25,0,0,0,0,0,0,0,0,0,37,0,0,0,0,33,0,7,0,0,0,0,36,0,0,21,0,23,45,8,0,16,0,0|
0,0,0,0,0,0,0,0,0,0,0,48,0,3,0,0,0,0,25,0,31,0,0,0,0,0,0,0,0,0,22,0,0,0,9,0,0,0,0,0,0,0,0,26,0,43,0,0,0|
0,24,1,0,0,0,18,0,0,0,0,0,0,0,0,0,0,16,8,0,0,0,31,0,0,0,47,0,0,0,0,46,0,0,0,0,0,0,12,0,0,0,0,27,0,0,0,0,0|
6,0,0,0,0,7,0,0,0,0,26,0,0,0,13,0,0,0,22,0,0,0,0,0,0,0,0,0,0,0,35,0,0,0,0,0,40,17,0,0,0,0,0,0,0,41,31,0,0|
0,0,0,0,0,0,0,0,0,45,0,0,13,24,0,28,0,0,35,0,0,0,0,0,0,0,0,0,36,0,5,0,0,0,4,0,25,0,0,0,0,0,0,0,0,0,0,0,0|
0,0,0,0,10,0,0,0,0,0,0,0,0,0,0,0,0,0,0,38,0,0,0,0,0,0,0,39,0,0,8,0,0,32,0,0,0,0,0,28,0,0,0,0,0,40,0,45,0|
0,0,0,0,0,0,0,0,0,0,0,0,0,0,0,0,0,29,0,0,0,0,0,0,11,18,0,7,0,0,0,0,0,0,25,0,0,0,0,2,0,0,0,0,0,17,0,34,0|
0,0,0,0,26,0,0,0,0,0,22,4,0,0,0,0,0,0,0,30,0,13,1,0,0,0,0,0,0,0,0,0,0,0,40,0,0,0,0,0,0,0,0,0,0,0,0,23,0|
0,0,0,0,0,0,0,0,0,0,48,0,0,0,0,0,0,0,0,0,0,0,0,0,0,0,33,0,19,37,0,0,0,0,0,0,0,0,0,0,0,0,0,0,0,0,0,42,0|
0,0,0,0,0,28,0,11,0,0,0,0,0,0,0,0,0,0,0,0,10,0,0,0,0,0,0,0,0,0,4,0,0,0,0,0,0,0,0,17,0,0,0,0,20,0,0,0,0|
10,0,0,0,0,0,0,0,0,0,0,28,0,0,0,0,0,0,0,0,0,0,0,0,0,0,0,0,0,0,39,0,0,0,0,36,0,0,0,0,0,0,40,0,0,0,0,0,21|
0,0,0,0,0,43,0,9,0,6,0,0,0,0,0,0,0,13,0,0,0,0,0,37,0,0,0,24,0,0,0,33,0,0,0,0,0,0,0,0,0,0,1,30,0,28,0,0,7|
0,0,0,0,0,0,39,0,0,36,0,22,0,0,0,30,0,0,0,0,29,0,0,0,0,0,15,0,0,0,0,0,0,0,46,0,0,10,0,0,0,0,0,0,0,48,0,0,0|
0,30,0,0,0,11,0,0,0,0,0,0,0,18,0,0,0,0,0,0,0,45,0,0,0,0,0,0,0,0,0,9,0,0,0,0,0,0,0,0,0,32,0,25,0,19,0,0,0|
0,0,0,0,0,0,0,0,0,31,25,0,5,33,20,0,0,0,0,39,0,0,0,0,18,0,0,48,0,0,28,0,0,1,0,0,0,0,0,0,0,0,11,0,0,4,0,0,0|
0,0,0,0,0,45,4,0,29,37,0,0,0,0,0,0,0,0,0,0,0,0,0,0,0,0,0,0,14,0,0,0,0,38,0,25,41,0,0,26,22,0,0,0,0,0,0,0,0|
0,0,0,0,0,0,0,0,0,0,0,25,34,40,41,38,0,0,0,0,0,0,0,0,10,0,0,0,0,0,0,0,0,0,0,0,47,0,0,0,0,0,14,0,4,0,23,46,0|
0,0,47,0,0,0,0,27,0,0,39,0,48,30,0,0,0,0,0,0,0,0,0,0,0,0,0,4,0,0,0,49,0,0,44,0,0,21,0,0,0,0,41,0,0,0,5,0,0|
0,0,0,0,0,30,0,0,0,0,0,0,0,0,16,0,0,0,0,0,0,0,0,0,0,0,0,0,0,0,0,0,0,0,12,37,0,0,0,1,0,31,0,0,0,8,0,0,0|
0,0,27,0,0,0,0,0,0,0,0,47,8,0,0,0,45,0,0,0,0,0,0,0,0,35,0,0,0,0,40,22,23,0,0,43,0,44,0,14,0,49,18,0,17,0,0,38,0|
0,0,0,0,0,0,0,43,0,0,0,0,26,0,25,0,0,8,0,0,0,0,0,46,0,0,42,0,0,1,0,0,0,0,0,0,0,0,0,0,0,0,0,0,13,0,0,0,0|
0,0,0,0,0,0,5,0,0,0,0,0,0,0,31,0,0,0,10,0,39,0,26,0,0,0,0,0,24,0,0,0,0,0,16,45,30,0,0,0,0,0,25,0,0,0,42,0,0|
14,0,29,0,0,0,45,0,48,0,0,0,0,47,39,49,0,0,0,0,8,0,0,0,0,0,0,0,0,0,13,0,0,0,3,0,0,0,0,18,27,0,0,0,38,0,0,0,17|
0,48,0,0,41,0,0,0,34,0,0,0,0,0,0,0,0,1,45,0,0,0,0,13,0,0,5,0,0,0,0,0,0,4,0,0,0,0,0,0,0,0,0,0,0,0,0,0,0|
11,0,0,0,0,0,30,0,0,0,0,6,0,0,0,40,0,0,0,0,0,0,0,45,0,9,35,0,0,0,36,0,34,0,17,0,0,0,0,0,1,0,0,0,0,0,0,44,0|
0,2,24,0,0,0,0,0,0,4,0,0,7,0,0,0,0,0,0,0,0,0,0,0,0,0,0,0,0,0,12,0,0,0,0,0,0,0,0,0,0,40,0,9,0,0,0,0,0|
0,0,0,0,44,0,0,0,0,0,0,0,19,32,0,0,0,0,0,0,0,0,48,0,0,0,43,0,0,0,0,0,0,0,0,0,0,0,37,0,14,0,12,0,0,0,0,25,0|
0,0,0,0,0,0,0,0,0,0,0,0,45,0,0,0,0,27,0,0,23,39,44,0,0,0,0,0,0,0,0,0,18,0,0,0,36,35,0,0,0,30,2,0,0,0,0,0,0|
0,0,40,0,0,0,0,0,0,0,0,17,0,0,0,0,0,0,0,0,0,0,0,0,0,0,0,0,42,24,48,0,0,0,19,0,15,0,0,0,44,0,0,0,0,0,14,0,0|];